Minimize
  12 x_turkey_dinner + 8 x_tuna_salad_sandwich
Subject To
  c1: 20 x_turkey_dinner + 18 x_tuna_salad_sandwich >= 150
  c2: 30 x_turkey_dinner + 25 x_tuna_salad_sandwich >= 200
  c3: 0.6 x_turkey_dinner - 0.4 x_tuna_salad_sandwich <= 0
Integer
  x_turkey_dinner x_tuna_salad_sandwich
End